Maximize
  0.000315405 Z_420_0_0 + 8.1532560151771378e-04 Z_420_0_1
   + 0.741732434762731 Z_420_0_2 + 7.9389179231445799e-04 Z_420_0_3
   + 0.156342942771845 Z_420_0_4 + 0.00152177360801863 Z_256_0_0
   + 0.00173079400497205 Z_256_0_1 + 0.3901475680491067 Z_256_0_2
   + 0.00245184925078149 Z_256_0_3 + 0.504148015087121 Z_256_0_4
   + 0.00157730478294246 Z_258_0_0 + 7.2607164269786802e-04 Z_258_0_1
   + 0.6370498790563444 Z_258_0_2 + 0.00442449739738928 Z_258_0_3
   + 0.2562222471206261 Z_258_0_4 + [ 0.2 Z_256_0_0 * Z_258_0_0
   + 0.2 Z_256_0_1 * Z_258_0_1 + 0.2 Z_256_0_2 * Z_258_0_2
   + 0.2 Z_256_0_3 * Z_258_0_3 ] / 2 
Subject To
 constraint1_4200: Z_420_0_0 + Z_420_0_1 + Z_420_0_2 + Z_420_0_3
   + Z_420_0_4 <= 1
 constraint1_2560: Z_256_0_0 + Z_256_0_1 + Z_256_0_2 + Z_256_0_3
   + Z_256_0_4 <= 1
 constraint1_2580: Z_258_0_0 + Z_258_0_1 + Z_258_0_2 + Z_258_0_3
   + Z_258_0_4 <= 1
 constraint2_290: <= 1
 constraint2_291: <= 1
 constraint2_292: <= 1
 constraint2_293: <= 1
 constraint2_4420: <= 1
 constraint2_4421: <= 1
 constraint2_4422: <= 1
 constraint2_4423: <= 1
 constraint2_6790: <= 1
 constraint2_6791: <= 1
 constraint2_6792: <= 1
 constraint2_6793: <= 1
 constraint2_3960: <= 1
 constraint2_3961: <= 1
 constraint2_3962: <= 1
 constraint2_3963: <= 1
 constraint2_5360: <= 1
 constraint2_5361: <= 1
 constraint2_5362: <= 1
 constraint2_5363: <= 1
 constraint2_4200: Z_420_0_0 <= 1
 constraint2_4201: Z_420_0_1 <= 1
 constraint2_4202: Z_420_0_2 <= 1
 constraint2_4203: Z_420_0_3 <= 1
 constraint2_2560: Z_256_0_0 <= 1
 constraint2_2561: Z_256_0_1 <= 1
 constraint2_2562: Z_256_0_2 <= 1
 constraint2_2563: Z_256_0_3 <= 1
 constraint2_2580: Z_258_0_0 <= 1
 constraint2_2581: Z_258_0_1 <= 1
 constraint2_2582: Z_258_0_2 <= 1
 constraint2_2583: Z_258_0_3 <= 1
Bounds
Binaries
 Z_420_0_0 Z_420_0_1 Z_420_0_2 Z_420_0_3 Z_420_0_4 Z_256_0_0 Z_256_0_1
 Z_256_0_2 Z_256_0_3 Z_256_0_4 Z_258_0_0 Z_258_0_1 Z_258_0_2 Z_258_0_3
 Z_258_0_4
End
